RT is False
Default write of storage_offers_DA.csv just to have a file (but constraint should be inactive)
Reading model...
...model read.
creating competitive generators file...
...competitive generators recorded.
Loading data...
.. day-ahead data with real-time VRE data read.
Compiling instance...
...instance created.
Creating Offer Mitigation (model will solve as dispatch if TRUE)...
NOTE: storage offers will not be mitigated
...storage offer mitigation file created
Converting model to MPEC...
...converted
NOTE: initial MIP solve with only storage competitive to get feasible solution
Solving...

Welcome to IBM(R) ILOG(R) CPLEX(R) Interactive Optimizer 12.9.0.0
  with Simplex, Mixed Integer & Barrier Optimizers
5725-A06 5725-A29 5724-Y48 5724-Y49 5724-Y54 5724-Y55 5655-Y21
Copyright IBM Corp. 1988, 2019.  All Rights Reserved.

Type 'help' for a list of available commands.
Type 'help' followed by a command name for more
information on commands.

CPLEX> Logfile 'cplex.log' closed.
Logfile 'C:\Users\llavin\Desktop\test919\logs\tmpdib4lzsz.cplex.log' open.
CPLEX> New value for parallel optimization mode: -1
CPLEX> New value for mixed integer optimality gap tolerance: 0.01
CPLEX> New value for integrality tolerance: 1e-09
CPLEX> New value for feasibility tolerance: 0.1
CPLEX> New value for deterministic time limit in ticks: 100000
CPLEX> Problem 'C:\Users\llavin\Desktop\test919\logs\tmp6rb32t6i.pyomo.lp' read.
Read time = 0.23 sec. (13.86 ticks)
CPLEX> Problem name         : C:\Users\llavin\Desktop\test919\logs\tmp6rb32t6i.pyomo.lp
Objective sense      : Maximize
Variables            :   53321  [Nneg: 1,  Box: 21806,  Free: 4416,
                                 Binary: 27098]
Objective nonzeros   :    8979
Linear constraints   :  122164  [Less: 40983,  Greater: 58612,  Equal: 22569]
  Nonzeros           :  288504
  RHS nonzeros       :   66981

Variables            : Min LB: -5000.000        Max UB: 1000000.       
Objective nonzeros   : Min   : 0.008333333      Max   : 722.0000       
Linear constraints   :
  Nonzeros           : Min   : 0.008333333      Max   : 1000000.       
  RHS nonzeros       : Min   : 0.008333333      Max   : 1000000.       
CPLEX> CPXPARAM_Parallel                                -1
CPXPARAM_Simplex_Tolerances_Feasibility          0.10000000000000001
CPXPARAM_DetTimeLimit                            100000
CPXPARAM_MIP_Tolerances_MIPGap                   0.01
CPXPARAM_MIP_Tolerances_Integrality              1.0000000000000001e-09
Tried aggregator 3 times.
MIP Presolve eliminated 88071 rows and 18927 columns.
MIP Presolve added 3373 rows and 0 columns.
MIP Presolve modified 23279 coefficients.
Aggregator did 12854 substitutions.
Reduced MIP has 24612 rows, 20984 columns, and 68949 nonzeros.
Reduced MIP has 8297 binaries, 0 generals, 0 SOSs, and 0 indicators.
Presolve time = 0.30 sec. (172.99 ticks)
Probing fixed 445 vars, tightened 2911 bounds.
Probing time = 1.27 sec. (911.77 ticks)
Tried aggregator 2 times.
MIP Presolve eliminated 991 rows and 893 columns.
MIP Presolve modified 2189 coefficients.
Aggregator did 59 substitutions.
Reduced MIP has 23562 rows, 20032 columns, and 65882 nonzeros.
Reduced MIP has 7852 binaries, 0 generals, 0 SOSs, and 0 indicators.
Presolve time = 0.09 sec. (67.52 ticks)
Probing time = 0.05 sec. (15.01 ticks)
Clique table members: 6316.
MIP emphasis: balance optimality and feasibility.
MIP search method: dynamic search.
Parallel mode: opportunistic, using up to 32 threads.
Root relaxation solution time = 0.36 sec. (315.90 ticks)

        Nodes                                         Cuts/
   Node  Left     Objective  IInf  Best Integer    Best Bound    ItCnt     Gap

      0     0     1554.8965  1228                   1554.8965     6784         
      0     0     1554.8965   331                   Cuts: 798     7042         
      0     0     1554.8965   264                   Cuts: 570     7186         
      0     0     1523.4162   210                   Cuts: 455     7288         
      0     0     1512.5759   202                   Cuts: 288     7338         
      0     0     1508.5159   196                    Cuts: 94     7349         
      0     0     1508.5159   195                    Cuts: 68     7351         
      0     0     1505.5331    69                    Cuts: 15     7353         
      0     0     1505.5331    68                    Cuts: 34     7355         
      0    18     1171.3976    53                 Flowcuts: 1     7457         
Elapsed time = 10.66 sec. (6408.87 ticks, tree = 0.02 MB, solutions = 0)
    655   255   -21604.2471    11                   1494.7116     8713         
   1437   943     1292.0280     8                   1494.7116    11876         
   1757  1443    infeasible                         1494.7116    12500         
   1924  1469     1074.2709     8                   1494.7116    12529         
   2060  1548    infeasible                         1494.7116    12667         
   2211  1632      794.8719     7                   1494.7116    12938         
   2341  1631      249.9241     8                   1494.7116    12925         
   2460  1694    infeasible                         1494.7116    13168         
   2556  1679      890.1974    10                   1494.7116    13111         
   2883  1727     1302.6934     8                   1494.7116    13290         
Elapsed time = 19.63 sec. (9539.49 ticks, tree = 8.86 MB, solutions = 0)
   3200  1837       94.6190     6                   1494.7116    13708         
*  3201  1924      integral     0   -26491.9715     1494.7116    14181  105.64%
   3660  1947     1386.9014    25   -26491.9715     1494.7116    14917  105.64%
   4551  1864     1477.4060    19   -17121.3650     1494.7116    15918  108.73%
   5382  1964     1402.8990    25   -17121.3650     1494.7116    15829  108.73%
   6121  2844        cutoff         -17121.3650     1494.7116    20032  108.73%
   6475  3358        cutoff         -17121.3650     1494.7116    21943  108.73%
   6771  3460     1450.1313     2   -17121.3650     1494.7116    22263  108.73%
   7049  3485     1386.7540     4   -17121.3650     1494.7116    22413  108.73%
   7320  3525     1147.8790     3   -17121.3650     1494.7116    22555  108.73%
Elapsed time = 36.63 sec. (18158.64 ticks, tree = 22.54 MB, solutions = 6)
   7641  3591        cutoff         -17121.3650     1494.7116    22899  108.73%
   7876  3685        cutoff         -17121.3650     1494.7116    23275  108.73%
   8028  3695        cutoff         -17121.3650     1494.7116    23348  108.73%
   8107  3793     1468.2771     6   -17121.3650     1494.7116    23922  108.73%
   8145  4070      967.9776    44   -17121.3650     1347.2117    31572  107.87%
   9677  1234      497.2383    12    -9637.0138      946.7291    37097  109.82%
  10245  1228     1163.8166    12    -9637.0138      946.7291    37220  109.82%
  10876  1303     -582.8569    14    -9637.0138      946.7291    37648  109.82%
  11345  1678      569.7296    16    -9637.0138      946.7291    40052  109.82%
  11687  1703      563.3870    11    -9637.0138      946.7291    40195  109.82%
Elapsed time = 58.66 sec. (31180.85 ticks, tree = 8.69 MB, solutions = 8)
  12015  1818      883.6906    14    -9637.0138      946.7291    40776  109.82%
  12334  1830      563.2532    17    -9637.0138      946.7291    40808  109.82%
  12609  1972      513.4118    13    -9637.0138      946.7291    41312  109.82%
  12853  2151      551.5554    15    -9637.0138      946.7291    41917  109.82%
  13091  2192     -855.6111    15    -9637.0138      946.7291    42018  109.82%
  13320  2274      883.9490    15    -9637.0138      946.7291    42210  109.82%
  13531  2229      569.3703    14    -9637.0138      946.7291    42109  109.82%
  13748  2320        cutoff          -9637.0138      946.7291    42327  109.82%
  13959  2381        cutoff          -9637.0138      946.7291    42495  109.82%
  14151  2360        cutoff          -9637.0138      946.7291    42432  109.82%
Elapsed time = 71.50 sec. (40770.35 ticks, tree = 13.31 MB, solutions = 8)
  14330  2462      865.5163    14    -9637.0138      946.7291    42710  109.82%
  14508  2539      497.2383    15    -9637.0138      946.7291    42928  109.82%
  14686  2604        cutoff          -9637.0138      946.7291    43190  109.82%
  14854  2806     -855.6111    13    -9637.0138      946.7291    44078  109.82%
  15026  2707     -591.3490    17    -9637.0138      946.7291    43594  109.82%
  15207  2781      513.4118    13    -9637.0138      946.7291    43950  109.82%
  15382  2734      497.2383    14    -9637.0138      946.7291    43682  109.82%
  15510  2782        cutoff          -9637.0138      946.7291    43955  109.82%
  15649  2931      883.6906    14    -9637.0138      946.7291    44477  109.82%
  15789  2955      865.5163    12    -9637.0138      946.7291    44567  109.82%
Elapsed time = 82.19 sec. (50383.72 ticks, tree = 18.23 MB, solutions = 8)
  15932  3106        cutoff          -9637.0138      946.7291    45150  109.82%
  16056  3055      563.7463    11    -9637.0138      946.7291    45014  109.82%
  16218  3026      889.6739    14    -9637.0138      946.7291    44915  109.82%
  16344  3052      264.4443    14    -9637.0138      946.7291    45002  109.82%
  16483  3241        cutoff          -9637.0138      946.7291    45769  109.82%
  16627  3417      883.9490    17    -9637.0138      946.7291    46458  109.82%
  16777  3242      264.4443    14    -9637.0138      946.7291    45767  109.82%
  16914  3260      871.4997    16    -9637.0138      946.7291    45811  109.82%
  17051  3286      865.5163    11    -9637.0138      946.7291    45938  109.82%
  17165  3424      883.9490    15    -9637.0138      946.7291    46495  109.82%
Elapsed time = 92.16 sec. (60011.27 ticks, tree = 22.24 MB, solutions = 8)
  17300  3465        cutoff          -9637.0138      946.7291    46694  109.82%
  17428  3395      513.4118    13    -9637.0138      946.7291    46360  109.82%
  17533  3755        cutoff          -9637.0138      946.7291    47888  109.82%
  17638  3557      569.7296    14    -9637.0138      946.7291    47132  109.82%
  17748  3464      361.5582    13    -9637.0138      946.7291    46674  109.82%
  17856  3514      569.3703    15    -9637.0138      946.7291    46901  109.82%
  17963  3515      817.1826    13    -9637.0138      946.7291    46905  109.82%
  18067  3634    -1093.1231    13    -9637.0138      946.7291    47413  109.82%
  18165  3719      871.4997    15    -9637.0138      946.7291    47750  109.82%
  18272  3725      883.6906    14    -9637.0138      946.7291    47753  109.82%
Elapsed time = 100.55 sec. (69659.18 ticks, tree = 24.86 MB, solutions = 8)
  18369  3634      551.5554    14    -9637.0138      946.7291    47426  109.82%
  18470  3902      551.5554    14    -9637.0138      946.7291    48546  109.82%
  18565  3795        cutoff          -9637.0138      946.7291    48041  109.82%
  18671  3730      264.4443    13    -9637.0138      946.7291    47766  109.82%
  18777  3731      569.7296    14    -9637.0138      946.7291    47770  109.82%
  18883  3758        cutoff          -9637.0138      946.7291    47913  109.82%
  18989  3839     -723.9674    14    -9637.0138      946.7291    48214  109.82%
  19091  3996        cutoff          -9637.0138      946.7291    48991  109.82%
  19196  3972      554.1243    13    -9637.0138      946.7291    48887  109.82%
  19294  3971        cutoff          -9637.0138      946.7291    48888  109.82%
Elapsed time = 109.86 sec. (79291.78 ticks, tree = 26.95 MB, solutions = 8)
  19387  3904        cutoff          -9637.0138      946.7291    48600  109.82%
  19491  4079     -864.7401    11    -9637.0138      946.7291    49404  109.82%
  19585  4078        cutoff          -9637.0138      946.7291    49409  109.82%
  19686  3996        cutoff          -9637.0138      946.7291    48998  109.82%
  19782  3996        cutoff          -9637.0138      946.7291    48999  109.82%
  19866  3935      537.0960    11    -9637.0138      946.7291    48734  109.82%
  19950  3994      871.4997    14    -9637.0138      946.7291    48969  109.82%
  20043  4089        cutoff          -9637.0138      946.7291    49510  109.82%
  20140  4162        cutoff          -9637.0138      946.7291    49977  109.82%
  20226  4212        cutoff          -9637.0138      946.7291    50343  109.82%
Elapsed time = 117.23 sec. (88950.32 ticks, tree = 29.02 MB, solutions = 8)
  20307  4083     -864.7401    11    -9637.0138      946.7291    49422  109.82%
  20390  4196        cutoff          -9637.0138      946.7291    50205  109.82%
  20460  4144      889.6739    12    -9637.0138      946.7291    49805  109.82%
  20516  4142        cutoff          -9637.0138      946.7291    49781  109.82%
  20584  4186        cutoff          -9637.0138      946.7291    50173  109.82%
  20641  4149        cutoff          -9637.0138      946.7291    49817  109.82%
  20697  4248      304.6614    12    -9637.0138      946.7291    50524  109.82%
  20747  4173      554.8757    11    -9637.0138      946.7291    50041  109.82%
  20779  4158      355.5749     7    -9637.0138      946.7291    49924  109.82%

GUB cover cuts applied:  4
Clique cuts applied:  14
Cover cuts applied:  15
Implied bound cuts applied:  194
Flow cuts applied:  435
Mixed integer rounding cuts applied:  99
Zero-half cuts applied:  1
Gomory fractional cuts applied:  85

Root node processing (before b&c):
  Real time             =    9.20 sec. (6376.32 ticks)
Parallel b&c, 32 threads:
  Real time             =  112.83 sec. (94326.61 ticks)
  Sync time (average)   =    0.69 sec.
  Wait time (average)   =    0.18 sec.
                          ------------
Total (root+branch&cut) =  122.03 sec. (100702.93 ticks)

Solution pool: 8 solutions saved.

MIP - Deterministic time limit exceeded, integer feasible:  Objective = -9.6370138137e+03
Current MIP best bound =  9.4672905773e+02 (gap = 10583.7, 109.82%)
Solution time =  122.03 sec.  Iterations = 51303  Nodes = 20835 (4332)
Deterministic time = 100703.08 ticks  (825.23 ticks/sec)

CPLEX> Incumbent solution written to file 'C:\Users\llavin\Desktop\test919\logs\tmpdijlf8k6.cplex.sol'.
CPLEX> NOTE: no warmstart specified for MIP iteration, default behavior is true
NOTE: resolving with all competitive generators using storage-only solution to warmstart
Solving...

Welcome to IBM(R) ILOG(R) CPLEX(R) Interactive Optimizer 12.9.0.0
  with Simplex, Mixed Integer & Barrier Optimizers
5725-A06 5725-A29 5724-Y48 5724-Y49 5724-Y54 5724-Y55 5655-Y21
Copyright IBM Corp. 1988, 2019.  All Rights Reserved.

Type 'help' for a list of available commands.
Type 'help' followed by a command name for more
information on commands.

CPLEX> Logfile 'cplex.log' closed.
Logfile 'C:\Users\llavin\Desktop\test919\logs\tmpqe4ffn_7.cplex.log' open.
CPLEX> New value for parallel optimization mode: -1
CPLEX> New value for mixed integer optimality gap tolerance: 0.01
CPLEX> New value for integrality tolerance: 1e-09
CPLEX> New value for feasibility tolerance: 0.1
CPLEX> New value for deterministic time limit in ticks: 100000
CPLEX> Problem 'C:\Users\llavin\Desktop\test919\logs\tmpkj3u9pul.pyomo.lp' read.
Read time = 0.22 sec. (13.88 ticks)
CPLEX> MIP start file 'C:\Users\llavin\Desktop\test919\logs\tmpkciez957.cplex.mst' read.
CPLEX> Problem name         : C:\Users\llavin\Desktop\test919\logs\tmpkj3u9pul.pyomo.lp
Objective sense      : Maximize
Variables            :   54041  [Nneg: 1,  Box: 22526,  Free: 4416,
                                 Binary: 27098]
Objective nonzeros   :    9699
Linear constraints   :  122164  [Less: 40983,  Greater: 58612,  Equal: 22569]
  Nonzeros           :  288504
  RHS nonzeros       :   66981

Variables            : Min LB: -5000.000        Max UB: 1000000.       
Objective nonzeros   : Min   : 0.008333333      Max   : 722.0000       
Linear constraints   :
  Nonzeros           : Min   : 0.008333333      Max   : 1000000.       
  RHS nonzeros       : Min   : 0.008333333      Max   : 1000000.       
CPLEX> CPXPARAM_Parallel                                -1
CPXPARAM_Simplex_Tolerances_Feasibility          0.10000000000000001
CPXPARAM_DetTimeLimit                            100000
CPXPARAM_MIP_Tolerances_MIPGap                   0.01
CPXPARAM_MIP_Tolerances_Integrality              1.0000000000000001e-09
Warning:  No solution found from 1 MIP starts.
Retaining values of one MIP start for possible repair.
Tried aggregator 3 times.
MIP Presolve eliminated 88071 rows and 19647 columns.
MIP Presolve added 3373 rows and 0 columns.
MIP Presolve modified 23279 coefficients.
Aggregator did 12854 substitutions.
Reduced MIP has 24612 rows, 20984 columns, and 68949 nonzeros.
Reduced MIP has 8297 binaries, 0 generals, 0 SOSs, and 0 indicators.
Presolve time = 0.28 sec. (173.35 ticks)
Probing fixed 445 vars, tightened 2911 bounds.
Probing time = 1.25 sec. (911.77 ticks)
Tried aggregator 2 times.
MIP Presolve eliminated 991 rows and 893 columns.
MIP Presolve modified 2189 coefficients.
Aggregator did 59 substitutions.
Reduced MIP has 23562 rows, 20032 columns, and 65882 nonzeros.
Reduced MIP has 7852 binaries, 0 generals, 0 SOSs, and 0 indicators.
Presolve time = 0.09 sec. (67.52 ticks)
Probing time = 0.03 sec. (15.01 ticks)
Clique table members: 6316.
MIP emphasis: balance optimality and feasibility.
MIP search method: dynamic search.
Parallel mode: opportunistic, using up to 32 threads.
Root relaxation solution time = 0.36 sec. (315.90 ticks)

        Nodes                                         Cuts/
   Node  Left     Objective  IInf  Best Integer    Best Bound    ItCnt     Gap

      0     0     1554.8965  1228                   1554.8965     6784         
      0     0     1554.8965   331                   Cuts: 798     7042         
      0     0     1554.8965   264                   Cuts: 570     7186         
      0     0     1523.4162   210                   Cuts: 455     7288         
      0     0     1512.5759   202                   Cuts: 288     7338         
      0     0     1508.5159   196                    Cuts: 94     7349         
      0     0     1508.5159   195                    Cuts: 68     7351         
      0     0     1505.5331    69                    Cuts: 15     7353         
      0     0     1505.5331    68                    Cuts: 34     7355         
Repair heuristic found nothing.
      0    16    infeasible                       Flowcuts: 1     7435         
Elapsed time = 10.44 sec. (6428.74 ticks, tree = 0.02 MB, solutions = 0)
    466    73   -18892.1192    19                   1494.7116     7731         
   1355   389   -21083.0230     3                   1494.7116     9273         
   1792   980    infeasible                         1494.7116    12079         
   1970  1503    infeasible                         1494.7116    12850         
   2114  1613     -244.0055     6                   1494.7116    13002         
   2261  1633     1065.2368     9                   1494.7116    13052         
   2391  1655    -7672.7489     6                   1494.7116    13119         
   2534  1704    infeasible                         1494.7116    13288         
   2626  1800      908.6674     7                   1494.7116    13614         
   2939  1880    -8488.3153     6                   1494.7116    13898         
Elapsed time = 19.77 sec. (9542.95 ticks, tree = 9.82 MB, solutions = 0)
   3233  1939      899.6333     8                   1494.7116    14346         
   3517  1980    infeasible                         1494.7116    14563         
   3770  2037      595.1536     4                   1494.7116    14813         
*  3955  2302      integral     0   -63191.8483     1494.7116    16540  102.37%
*  3976  2350      integral     0   -63148.8863     1494.7116    16993  102.37%
   4139  2180    infeasible         -52217.1743     1494.7116    15483  102.86%
*  4457  2433      integral     0   -21844.5790     1494.7116    18080  106.84%
*  4659  2455      integral     0     1292.5811     1494.7116    20535   15.64%
   5418  2532   -15650.5493    11     1292.5811     1493.8671    19358   15.57%
   6386   672     1386.9014    14     1292.5811     1493.8671    21976   15.57%
   7348  2527     1467.7374     3     1292.5811     1493.8671    21157   15.57%
   8005   362        cutoff           1292.5811     1493.8671    25669   15.57%
Elapsed time = 37.58 sec. (18263.61 ticks, tree = 1.56 MB, solutions = 11)
   8372   354     1393.7700     1     1292.5811     1493.8671    26714   15.57%
   8546   426     1474.7535     1     1292.5811     1493.8671    27325   15.57%
*  8566     0      integral     0     1292.5811                  33214     --- 

Clique cuts applied:  5
Implied bound cuts applied:  21
Flow cuts applied:  176
Mixed integer rounding cuts applied:  26
Gomory fractional cuts applied:  64

Root node processing (before b&c):
  Real time             =    9.33 sec. (6412.61 ticks)
Parallel b&c, 32 threads:
  Real time             =   30.80 sec. (15082.53 ticks)
  Sync time (average)   =    0.31 sec.
  Wait time (average)   =    0.00 sec.
                          ------------
Total (root+branch&cut) =   40.13 sec. (21495.14 ticks)

Solution pool: 11 solutions saved.

MIP - Integer optimal solution:  Objective =  1.2925811471e+03
Solution time =   40.16 sec.  Iterations = 33214  Nodes = 8566
Deterministic time = 21495.29 ticks  (535.29 ticks/sec)

CPLEX> Incumbent solution written to file 'C:\Users\llavin\Desktop\test919\logs\tmp3126cxzi.cplex.sol'.
CPLEX> Exporting results... 
